1 1135 5
2 943 5
3 926 5
6 917 5
7 896 5
16 887 5
19 886 5
21 875 5
86 858 5
635 856 5



1 1067 5
2 972 5
3 931 5
12 923 5
13 904 5
18 898 5
21 892 5
24 881 5
70 876 5
77 871 5
86 870 5
171 862 5
234 858 5



1 1136 5
2 972 5
3 960 5
4 923 5
6 893 5
15 882 5
18 878 5
19 867 5
40 865 5
251 862 5
297 849 5



1 1080 5
2 990 5
3 946 5
4 941 5
5 935 5
8 894 5
12 886 5
20 859 5
213 846 5



1 1098 5
2 935 5
5 923 5
8 867 5
116 864 5
222 858 5
833 857 5
862 849 5



